* ENCODING=ISO-8859-1
NAME          CPLEX
ROWS
 N  obj1    
 G  c1      
 G  c2      
 G  c3      
 G  c4      
 G  c5      
 G  c6      
 G  c7      
 G  c8      
 G  c9      
 G  c10     
 G  c11     
 G  c12     
 G  c13     
 G  c14     
 G  c15     
 G  c16     
 G  c17     
 G  c18     
 G  c19     
 G  c20     
 G  c21     
 G  c22     
 G  c23     
 G  c24     
 G  c25     
COLUMNS
    MARK0000  'MARKER'                 'INTORG'
    x1        obj1                            1
    x1        c7                            270
    x1        c22                           668
    x2        obj1                            1
    x2        c3                            719
    x2        c17                           241
    x2        c20                           937
    x2        c21                           635
    x3        obj1                            1
    x3        c8                            584
    x3        c12                           977
    x3        c13                           364
    x4        obj1                            1
    x4        c17                           132
    x5        obj1                            1
    x5        c25                           787
    x6        obj1                            1
    x6        c6                            595
    x6        c12                           636
    x6        c17                           606
    x7        obj1                            1
    x7        c6                            442
    x7        c11                           633
    x8        obj1                            1
    x8        c1                            548
    x8        c12                           438
    x8        c20                           802
    x9        obj1                            1
    x9        c9                            882
    x10       obj1                            1
    x11       obj1                            1
    x11       c2                            112
    x11       c4                            894
    x12       obj1                            1
    x12       c12                           974
    x12       c20                           619
    x12       c23                           666
    x12       c24                           979
    x13       obj1                            1
    x13       c1                            798
    x13       c14                           610
    x13       c23                           436
    x14       obj1                            1
    x14       c19                           308
    x15       obj1                            1
    x15       c4                            880
    x16       obj1                            1
    x16       c2                            428
    x17       obj1                            1
    x17       c2                            342
    x17       c11                           764
    x18       obj1                            1
    x18       c4                            646
    x18       c21                           198
    x19       obj1                            1
    x19       c1                            910
    x19       c5                            630
    x19       c7                            166
    x19       c14                           231
    x19       c16                           897
    x19       c18                           384
    x20       obj1                            1
    x20       c12                           232
    x20       c25                           523
    x21       obj1                            1
    x22       obj1                            1
    x22       c2                            492
    x22       c7                            512
    x22       c16                           806
    x23       obj1                            1
    x23       c4                            444
    x23       c24                           160
    x24       obj1                            1
    x24       c3                            319
    x24       c7                            168
    x25       obj1                            1
    x25       c2                            303
    x25       c13                           496
    x26       obj1                            1
    x27       obj1                            1
    x27       c18                           225
    x27       c20                           369
    x27       c22                           515
    x28       obj1                            1
    x28       c15                           276
    x28       c23                           741
    x29       obj1                            1
    x29       c17                           765
    x30       obj1                            1
    x30       c6                            702
    x30       c10                           535
    x30       c15                           224
    x30       c25                           447
    x31       obj1                            1
    x31       c3                            251
    x31       c8                            575
    x31       c21                           804
    x31       c22                           998
    x31       c24                           982
    x31       c25                           833
    x32       obj1                            1
    x32       c4                            534
    x32       c7                            264
    x32       c9                            170
    x32       c15                           289
    x32       c17                           313
    x32       c19                           989
    x33       obj1                            1
    x33       c4                            309
    x33       c10                           438
    x33       c13                           206
    x34       obj1                            1
    x34       c5                            624
    x34       c16                           751
    x34       c24                           609
    x35       obj1                            1
    x35       c11                           711
    x35       c13                           789
    x35       c16                           138
    x35       c18                           822
    x35       c25                           657
    x36       obj1                            1
    x36       c1                            701
    x36       c10                           121
    x36       c12                           124
    x37       obj1                            1
    x37       c3                            593
    x37       c5                            826
    x37       c16                           997
    x37       c20                           292
    x37       c24                           308
    x38       obj1                            1
    x38       c25                           608
    x39       obj1                            1
    x39       c17                           121
    x39       c25                           196
    x40       obj1                            1
    x40       c11                           328
    x40       c23                           806
    x41       obj1                            1
    x42       obj1                            1
    x42       c6                            507
    x42       c9                            712
    x42       c15                           753
    x42       c17                           256
    x42       c21                           641
    x42       c22                           811
    x43       obj1                            1
    x43       c5                            681
    x43       c12                           494
    x43       c13                           707
    x43       c15                           138
    x43       c19                           280
    x43       c22                           819
    x44       obj1                            1
    x44       c15                           160
    x44       c20                           482
    x45       obj1                            1
    x45       c6                            135
    x46       obj1                            1
    x46       c7                            671
    x46       c13                           214
    x46       c14                           668
    x46       c16                           118
    x46       c21                           770
    x46       c22                           819
    x47       obj1                            1
    x47       c4                            536
    x47       c8                            129
    x47       c21                           804
    x48       obj1                            1
    x48       c2                            497
    x48       c20                           648
    x48       c23                           265
    x49       obj1                            1
    x49       c2                            873
    x50       obj1                            1
    x50       c9                            454
    x50       c24                           850
    MARK0001  'MARKER'                 'INTEND'
RHS
    rhs       c1                           1479
    rhs       c2                           1524
    rhs       c3                            941
    rhs       c4                           2122
    rhs       c5                           1381
    rhs       c6                           1191
    rhs       c7                           1026
    rhs       c8                            644
    rhs       c9                           1109
    rhs       c10                           547
    rhs       c11                          1218
    rhs       c12                          1938
    rhs       c13                          1388
    rhs       c14                           755
    rhs       c15                           920
    rhs       c16                          1854
    rhs       c17                          1217
    rhs       c18                           716
    rhs       c19                           789
    rhs       c20                          2075
    rhs       c21                          1926
    rhs       c22                          2315
    rhs       c23                          1457
    rhs       c24                          1944
    rhs       c25                          2026
BOUNDS
 LI bnd       x1        0
 LI bnd       x2        0
 LI bnd       x3        0
 LI bnd       x4        0
 LI bnd       x5        0
 LI bnd       x6        0
 LI bnd       x7        0
 LI bnd       x8        0
 LI bnd       x9        0
 LI bnd       x10       0
 LI bnd       x11       0
 LI bnd       x12       0
 LI bnd       x13       0
 LI bnd       x14       0
 LI bnd       x15       0
 LI bnd       x16       0
 LI bnd       x17       0
 LI bnd       x18       0
 LI bnd       x19       0
 LI bnd       x20       0
 LI bnd       x21       0
 LI bnd       x22       0
 LI bnd       x23       0
 LI bnd       x24       0
 LI bnd       x25       0
 LI bnd       x26       0
 LI bnd       x27       0
 LI bnd       x28       0
 LI bnd       x29       0
 LI bnd       x30       0
 LI bnd       x31       0
 LI bnd       x32       0
 LI bnd       x33       0
 LI bnd       x34       0
 LI bnd       x35       0
 LI bnd       x36       0
 LI bnd       x37       0
 LI bnd       x38       0
 LI bnd       x39       0
 LI bnd       x40       0
 LI bnd       x41       0
 LI bnd       x42       0
 LI bnd       x43       0
 LI bnd       x44       0
 LI bnd       x45       0
 LI bnd       x46       0
 LI bnd       x47       0
 LI bnd       x48       0
 LI bnd       x49       0
 LI bnd       x50       0
ENDATA
